************************************************************************
file with basedata            : J12016_.BAS
initial value random generator: 327901576
************************************************************************
projects                      :  1
jobs (incl. supersource/sink ):  122
horizon                       :  671
RESOURCES
  - renewable                 :  4   R
  - nonrenewable              :  0   N
  - doubly constrained        :  0   D
************************************************************************
PROJECT INFORMATION:
pronr.  #jobs rel.date duedate tardcost  MPM-Time
    1    120      0       88      117       88
************************************************************************
PRECEDENCE RELATIONS:
jobnr.    #modes  #successors   successors
   1        1          3           2   3   4
   2        1          3           5   7   8
   3        1          3           6   9  13
   4        1          3          23  55  74
   5        1          3          11  18  20
   6        1          3          16  21  39
   7        1          2          14  22
   8        1          3          10  27  92
   9        1          3          50  61  71
  10        1          3          12  19  25
  11        1          1          38
  12        1          1          75
  13        1          3          34  62 101
  14        1          3          15  17  41
  15        1          1          93
  16        1          3          30  41  47
  17        1          3          29  73  76
  18        1          1          53
  19        1          1          31
  20        1          3          72  81 100
  21        1          3          26  80  93
  22        1          2          28  66
  23        1          3          24  40  42
  24        1          3          30  33  56
  25        1          3          52  58 121
  26        1          1         115
  27        1          3          32  43 108
  28        1          2          49  96
  29        1          3          45  57  67
  30        1          1          37
  31        1          2          69  75
  32        1          1          99
  33        1          1          97
  34        1          2          35  36
  35        1          3          44  51  79
  36        1          3          54  68  83
  37        1          2          51  87
  38        1          1         100
  39        1          1          63
  40        1          1          97
  41        1          2          99 105
  42        1          1          91
  43        1          1          48
  44        1          2          85  86
  45        1          2          46  60
  46        1          2          59  77
  47        1          1          70
  48        1          3          64  88 118
  49        1          1         101
  50        1          1         115
  51        1          1          84
  52        1          1          94
  53        1          1         115
  54        1          1          71
  55        1          1          61
  56        1          1          66
  57        1          2          65 110
  58        1          1          69
  59        1          1          85
  60        1          1          78
  61        1          1         111
  62        1          1          75
  63        1          2          89 106
  64        1          1         116
  65        1          1          71
  66        1          1         114
  67        1          1          95
  68        1          1          70
  69        1          1          91
  70        1          2          90 103
  71        1          2          74  94
  72        1          1          88
  73        1          1         114
  74        1          1          81
  75        1          1          98
  76        1          1          78
  77        1          1          82
  78        1          1         121
  79        1          2         114 117
  80        1          1          82
  81        1          1         118
  82        1          1         109
  83        1          1         102
  84        1          1         107
  85        1          1          87
  86        1          1          92
  87        1          1         108
  88        1          1         112
  89        1          1          93
  90        1          1         107
  91        1          1         116
  92        1          1         108
  93        1          2         104 109
  94        1          1         103
  95        1          1         112
  96        1          1         118
  97        1          1          99
  98        1          1         116
  99        1          1         113
 100        1          1         117
 101        1          1         105
 102        1          1         103
 103        1          1         107
 104        1          1         113
 105        1          1         106
 106        1          1         113
 107        1          1         111
 108        1          1         109
 109        1          1         110
 110        1          1         112
 111        1          1         117
 112        1          1         120
 113        1          1         119
 114        1          1         121
 115        1          1         120
 116        1          1         120
 117        1          1         119
 118        1          1         119
 119        1          1         122
 120        1          1         122
 121        1          1         122
 122        1          0        
************************************************************************
REQUESTS/DURATIONS:
jobnr. mode duration  R 1  R 2  R 3  R 4
------------------------------------------------------------------------
  1      1     0       0    0    0    0
  2      1     6       5    2    7    2
  3      1     7       9    9    2    3
  4      1     1       2    7    8    4
  5      1     6       4    2    6    1
  6      1     3       5   10    5    2
  7      1     4       7    7   10    9
  8      1     1       9    3    3    4
  9      1     8       8   10    9    7
 10      1    10       7    2    2    7
 11      1     7       9   10    4    4
 12      1     4       5    5    7    6
 13      1    10       9    5    4    4
 14      1     5       5    4    3    9
 15      1     9       1    8    5    5
 16      1     1       1    6    2    4
 17      1     5       3    1    2    8
 18      1    10       9    8    4    2
 19      1     4       8    1    1    7
 20      1     6       6    9    2    5
 21      1     6       9   10    3   10
 22      1     8       7    1    2    8
 23      1     7       5    5    5    4
 24      1     7      10    5    4   10
 25      1     2       7    1    5    6
 26      1     5       8    6    2    5
 27      1     1       3    8    5    1
 28      1     5       8    3    3    9
 29      1     4       2   10    9    2
 30      1     3       6    8    7    6
 31      1     6       3    3    1    7
 32      1     3       1    4    4    6
 33      1    10       1    4    5    8
 34      1     8       5    8    4    4
 35      1     5       2    1    5   10
 36      1    10       1    7    8    5
 37      1     2       9    2    7    5
 38      1     8      10    6    6    1
 39      1     3       1    4    9    6
 40      1     3       5    2    8    8
 41      1     9       4    6    8    6
 42      1     6      10    2    3   10
 43      1     3       9    3   10   10
 44      1     2       8    9    4    2
 45      1     9       8    5   10    6
 46      1     9       3    4    5    3
 47      1     9       4   10    8    9
 48      1     2      10    1    1    5
 49      1     6       6    2    8    2
 50      1     2      10    7    2    3
 51      1     5       5    9    7    5
 52      1     2       1    9    7    2
 53      1     7       2    8    4   10
 54      1     6       4    1    4    1
 55      1    10       8    8    5    9
 56      1    10      10    5    3    5
 57      1     1       9    2    9    5
 58      1     8       1    2    1    2
 59      1     5       5    8    9    2
 60      1    10       3    1    5    9
 61      1     2       2    7    1    7
 62      1    10       1    9    7    9
 63      1     5       3    9    3    4
 64      1     8       8    7    1    3
 65      1     3       1    1    8    8
 66      1     1       9    5    1    8
 67      1     3       4   10    9    6
 68      1     4       1    6    7    8
 69      1    10       4    9    1    6
 70      1     8       8    6    4   10
 71      1     1       2    8    5   10
 72      1     7       6    9    5    7
 73      1     7       3    6    9    1
 74      1     4       2    9    1    3
 75      1     5       6    5   10    1
 76      1     2       1    5    3    6
 77      1     3       3    1    4    7
 78      1    10       5    9    8    3
 79      1     1       8    1    5    1
 80      1     1       8    6    6    1
 81      1     4       1    1    1    8
 82      1     3       2    4    3    7
 83      1     1       3    6    1    8
 84      1     7       9    4    7   10
 85      1     9       3    8    4    3
 86      1     4       3    1    8    4
 87      1     9      10    1   10    2
 88      1     1       3   10    3   10
 89      1     4       2    4    3    9
 90      1     2       2    9    4    1
 91      1     4       9    7   10   10
 92      1     7       7    9    1    9
 93      1    10       4   10    9    1
 94      1     9       7    1    1    6
 95      1     8       6    7    8    8
 96      1     3       7    7    5    1
 97      1    10       6    6    1    9
 98      1     9       3    5    6    2
 99      1     9       2    5    4    7
100      1     8       5    6    9    4
101      1    10       3    3    9    8
102      1     8       6    5    3    5
103      1     2       4    5    1    5
104      1     8       9    4    5    3
105      1     5       4   10    5    8
106      1     5       3    9    6    3
107      1     6       5    9    3   10
108      1     4      10    2    7    8
109      1     7       7   10    8    4
110      1     7       6    4    5    8
111      1     6      10    4    9    3
112      1     3       2    6    9    5
113      1    10       2    9    9    4
114      1     8       6    6    9    8
115      1     6       3    3    2    6
116      1     9       5    7    4    6
117      1     6       3    7    4    9
118      1     3      10    8    9    4
119      1     1       9    9    5    4
120      1     2       5    3    3    8
121      1     5       6   10    2    2
122      1     0       0    0    0    0
************************************************************************
RESOURCEAVAILABILITIES:
  R 1  R 2  R 3  R 4
   21   21   19   21
************************************************************************
